decision_x1=[0,99];
decision_x2=[0,99];
decision_x3=[0,99];
decision_x4=[0,99];
decision_x5=[0,99];
decision_x6=[0,99];
decision_x7=[0,99];
decision_x8=[0,99];
decision_x9=[0,99];
decision_x10=[0,99];
random_y1=[0,99];
random_y2=[0,99];
random_y3=[0,99];
random_y4=[0,99];
random_y5=[0,99];
random_y6=[0,99];
random_y7=[0,99];
random_y8=[0,99];
random_y9=[0,99];
random_y10=[0,99];
function(x3,x2)=-1.32636x3^2 -8.00632x3 -7.10126x2^2 8.34094x2 3.51465x3x2 -7.25226;
function(x7,x1)=-3.33931x7^2 9.62238x7 -3.57665x1^2 2.20253x1 -3.923x7x1 -6.2404;
function(x7,x4)=5.00459x7^2 2.1768x7 9.63401x4^2 8.13693x4 5.77539x7x4 -2.9819;
function(x7,x5)=-8.0856x7^2 -6.41844x7 -7.01031x5^2 2.37473x5 5.43984x7x5 5.00726;
function(x8,x2)=-7.08847x8^2 -8.65994x8 -2.39758x2^2 1.09161x2 -7.52744x8x2 -7.21391;
function(x9,x5)=-1.29449x9^2 7.16018x9 -8.3099x5^2 1.71996x5 -2.86897x9x5 1.12296;
function(x9,x6)=5.17251x9^2 8.81213x9 -8.36916x6^2 8.93693x6 9.45153x9x6 -7.72921;
function(x10,x2)=1.02064x10^2 8.96062x10 3.5585x2^2 -9.7379x2 4.07368x10x2 4.69644;
function(x10,x9)=-6.51702x10^2 -3.728x10 -3.66555x9^2 -9.47248x9 9.53968x10x9 7.44693;
function(x1,y1)=-8.43961x1^2 2.77163x1 1.23428y1^2 7.59593y1 -3.62945x1y1 7.66804;
function(x2,y2)=4.24658x2^2 8.86203x2 -8.31484y2^2 -3.95073y2 -4.63571x2y2 3.57912;
function(x3,y3)=-4.0476x3^2 -7.5751x3 -3.26716y3^2 5.35022y3 -3.32194x3y3 8.08207;
function(x4,y4)=-6.82954x4^2 7.63219x4 5.76354y4^2 -6.3598y4 2.96163x4y4 2.42906;
function(x5,y5)=7.62933x5^2 -9.61572x5 -8.9589y5^2 -5.29195y5 2.67387x5y5 -5.53029;
function(x6,y6)=6.76574x6^2 5.69107x6 -8.20171y6^2 -1.43573y6 5.4954x6y6 3.11988;
function(x7,y7)=-3.54073x7^2 6.48632x7 7.90354y7^2 1.83791y7 3.76931x7y7 9.43308;
function(x8,y8)=7.62903x8^2 -6.83741x8 3.24961y8^2 8.15861y8 4.95827x8y8 -8.65854;
function(x9,y9)=-4.74994x9^2 5.49582x9 6.85075y9^2 -6.84447y9 5.02979x9y9 1.49633;
function(x10,y10)=-7.97387x10^2 -5.92556x10 -6.02336y10^2 -5.00579y10 -7.84646x10y10 -5.23996;
neighbor_set_x1=x7 ;
neighbor_set_x10=x2 x9 ;
neighbor_set_x2=x10 x3 x8 ;
neighbor_set_x3=x2 ;
neighbor_set_x4=x7 ;
neighbor_set_x5=x7 x9 ;
neighbor_set_x6=x9 ;
neighbor_set_x7=x1 x4 x5 ;
neighbor_set_x8=x2 ;
neighbor_set_x9=x10 x5 x6 ;
initial_distribution_y1=[alpha:9.89434,beta:9.4481];
initial_distribution_y2=[alpha:6.77696,beta:9.1891];
initial_distribution_y3=[alpha:9.81405,beta:4.45065];
initial_distribution_y4=[alpha:5.21691,beta:6.32675];
initial_distribution_y5=[alpha:5.82528,beta:6.45557];
initial_distribution_y6=[alpha:8.23227,beta:8.35307];
initial_distribution_y7=[alpha:8.91745,beta:4.10329];
initial_distribution_y8=[alpha:7.66677,beta:9.29915];
initial_distribution_y9=[alpha:8.7806,beta:5.19591];
initial_distribution_y10=[alpha:6.65268,beta:9.16126];
transition_y1=[alpha:7.80758];
transition_y2=[alpha:7.59626];
transition_y3=[alpha:8.55844];
transition_y4=[alpha:8.97943];
transition_y5=[alpha:5.39316];
transition_y6=[alpha:4.22932];
transition_y7=[alpha:4.23896];
transition_y8=[alpha:8.56328];
transition_y9=[alpha:5.23838];
transition_y10=[alpha:4.2115];
